<?xml version = "1.0" standalone="yes"?>
<!-- This file has been generated by DOcplex version 2.23.222  -->
<CPLEXSolution version="1.0">
 <header
   problemName="CVRP"
   objectiveValue="7768.51"
  />
 <variables>
  <variable name="x_0_1" index="0" value="1.00000"/>
  <variable name="x_0_5" index="4" value="1.00000"/>
  <variable name="x_0_6" index="5" value="1.00000"/>
  <variable name="x_0_7" index="6" value="1.00000"/>
  <variable name="x_0_8" index="7" value="1.00000"/>
  <variable name="x_0_9" index="8" value="1.00000"/>
  <variable name="x_0_11" index="10" value="1.00000"/>
  <variable name="x_1_10" index="20" value="1.00000"/>
  <variable name="x_2_0" index="22" value="1.00000"/>
  <variable name="x_3_0" index="33" value="1.00000"/>
  <variable name="x_4_0" index="44" value="1.00000"/>
  <variable name="x_5_0" index="55" value="1.00000"/>
  <variable name="x_6_0" index="66" value="1.00000"/>
  <variable name="x_7_3" index="80" value="1.00000"/>
  <variable name="x_8_0" index="88" value="1.00000"/>
  <variable name="x_9_0" index="99" value="1.00000"/>
  <variable name="x_10_4" index="114" value="1.00000"/>
  <variable name="x_11_2" index="123" value="1.00000"/>
  <variable name="u_1" index="132" value="8.00000"/>
  <variable name="u_2" index="133" value="21.00000"/>
  <variable name="u_3" index="134" value="22.00000"/>
  <variable name="u_4" index="135" value="34.00000"/>
  <variable name="u_5" index="136" value="24.00000"/>
  <variable name="u_6" index="137" value="16.00000"/>
  <variable name="u_7" index="138" value="12.00000"/>
  <variable name="u_8" index="139" value="34.00000"/>
  <variable name="u_9" index="140" value="26.00000"/>
  <variable name="u_10" index="141" value="28.00000"/>
  <variable name="u_11" index="142" value="2.00000"/>
 </variables>
</CPLEXSolution>
